NAME : XML100_3232_18
DIMENSION : 101
NB_CLUSTERS : 6
CLUSTERING_ALG : KMeans
CLUSTERING_PARAMS : k(5)
CLUSTERS
1 0
2 3 6 9 11 13 14 18 22 25 29 44 49 68 72 76 81 82 84 87 91 96 98 99
3 4 10 27 28 34 35 38 43 45 52 53 58 59 62 69 73 79 86 93
4 2 7 12 21 24 39 41 46 48 55 60 61 65 77 80 85 95
5 1 5 15 16 19 23 26 30 32 36 37 40 50 51 54 67 70 71 89 94 97 100
6 8 17 20 31 33 42 47 56 57 63 64 66 74 75 78 83 88 90 92
EOF